s td 67 17 101
b 1 47 55 92 101
b 2 33 48 68 92
b 3 44 56 75 81
b 4 56 63 86 89
b 5 5 18 25 56 57 87
b 6 5 25 56 57 63 87 89
b 7 1 10 19 72 79 99
b 8 3 22 31 36 78 92
b 9 3 31 36 55 78 92 101
b 10 16 23 38 73 80 98
b 11 2 5 25 51 56 57 87
b 12 5 25 51 54 56 57 87
b 13 3 11 31 36 51 78 92
b 14 3 31 36 51 78 92 93
b 15 3 24 31 36 69 78 92
b 16 3 31 36 69 78 92 94
b 17 1 10 43 69 72 79 99
b 18 1 10 69 72 74 79 99
b 19 1 7 8 16 30 38 46 49 69 73 76 77 80 82 88 91 98
b 20 8 16 30 34 38 41 46 51 61 69 73 76 77 80 82 91 98
b 21 16 30 34 38 41 51 61 69 73 76 77 80 82 91 92 98
b 22 16 30 34 38 41 51 61 69 73 77 78 80 82 91 92 98
b 23 16 31 34 38 41 51 61 69 73 77 78 80 82 91 92 98
b 24 3 16 31 34 38 41 51 61 69 73 77 78 80 82 92 98
b 25 3 31 34 38 41 61 73 77 78 80 83 92 98
b 26 3 31 34 38 41 61 71 73 77 78 83 92 98
b 27 3 31 34 41 61 65 71 73 77 78 83 92 98
b 28 3 31 34 41 61 62 65 71 73 77 78 83 92
b 29 3 4 6 31 34 41 45 61 62 65 71 77 78 83 92 100
b 30 3 4 6 9 31 34 45 62 65 71 78 83 92 100
b 31 3 4 6 28 31 34 45 62 65 71 78 83 92 100
b 32 3 4 6 31 33 45 62 65 68 71 78 83 92 100
b 33 3 4 6 31 45 50 62 65 71 77 78 83 92 100
b 34 3 4 6 31 45 52 62 65 71 78 83 92 100
b 35 3 4 6 31 45 62 64 65 71 77 78 83 92 100
b 36 3 16 31 36 38 51 69 73 78 80 92 98
b 37 3 16 31 36 38 39 73 78 80 92 98
b 38 3 16 31 36 38 73 78 80 85 92 98
b 39 8 16 27 30 34 38 41 46 51 61 73 76 80 82 84 91 98
b 40 16 27 30 34 38 51 73 76 80 82 84 87 91 98
b 41 16 27 30 34 38 51 56 73 76 80 82 84 87 98
b 42 16 25 27 30 34 38 51 56 73 80 82 84 87 98
b 43 5 16 25 27 30 34 38 51 56 73 80 84 87 98
b 44 5 16 25 38 51 56 57 73 80 87 98
b 45 5 12 16 25 38 56 57 73 80 87 98
b 46 5 16 25 38 56 57 70 73 80 87 98
b 47 5 25 27 34 38 56 73 80 84 87 95 98
b 48 5 25 27 34 56 73 80 84 87 90 95 98
b 49 5 25 27 34 56 58 73 84 87 90 95 98
b 50 5 15 25 27 34 56 58 73 84 87 90 95
b 51 5 13 15 25 27 34 56 58 67 84 87 90 95 96
b 52 5 13 15 25 26 56 58 67 87 90 95 96
b 53 5 13 15 25 34 35 56 58 67 87 90 95 96
b 54 5 13 15 25 34 37 56 58 67 87 90 95 96
b 55 5 13 15 25 44 56 58 67 75 87 90 95 96
b 56 8 20 27 30 38 41 46 61 73 76 80 82 84 91 98
b 57 8 20 27 29 32 41 46 53 61 84
b 58 1 7 8 16 30 38 46 49 69 73 76 77 79 82 88 91 98
b 59 1 7 8 30 38 46 49 69 73 77 79 82 88 91 98 99
b 60 1 7 8 38 46 49 69 72 73 77 79 82 88 91 98 99
b 61 1 7 8 10 38 46 49 69 72 73 77 79 88 91 98 99
b 62 8 10 38 42 46 49 59 72 73 77 79 98 99
b 63 8 10 38 42 46 49 59 72 73 79 97 98 99
b 64 8 10 38 40 42 46 49 59 72 73 97 98 99
b 65 8 40 42 46 49 59 60 72 73 97 98 99
b 66 8 14 40 42 46 49 59 60 97 98 99
b 67 8 17 21 42 46 59 66 97
1 9
2 32
3 55
4 6
5 44
6 44
7 61
8 36
9 36
10 19
11 44
12 44
13 36
14 36
15 36
16 36
17 61
18 61
19 20
19 58
20 21
20 39
21 22
22 23
23 24
24 25
24 36
25 26
26 27
27 28
28 29
29 30
29 31
29 32
29 33
29 34
29 35
36 37
36 38
39 40
39 56
40 41
41 42
42 43
43 44
43 47
44 45
44 46
47 48
48 49
49 50
50 51
51 52
51 53
51 54
51 55
56 57
58 59
59 60
60 61
61 62
62 63
63 64
63 67
64 65
65 66
